Route #1: 40 24 12 4 30 68 33 37 43 2 
Route #2: 64 26 56 41 51 39 54 20 
Route #3: 65 36 48 61 5 32 34 57 
Route #4: 16 18 53 21 58 52 62 10 49 
Route #5: 22 13 46 60 45 35 17 55 
Route #6: 42 38 9 3 23 50 
Route #7: 31 27 29 19 25 11 59 7 
Route #8: 8 47 14 6 15 63 67 
Route #9: 44 66 28 
cost 1352.67
